File : Instances/p61
Use 143 s

25766

0 0 1 1 1 0 0 0 0 0 1 0 1 0 0 0 1 1 1 1 1 0 0 0 0 1 0 1 0 0 
18 19 2 27 2 12 16 27 18 17 4 17 10 3 19 18 3 20 16 27 18 16 2 27 10 18 27 19 4 2 19 19 4 16 27 12 20 20 16 16 18 20 12 4 20 19 3 16 19 20 27 16 2 16 20 12 25 20 18 25 4 17 25 20 3 25 10 17 19 25 18 12 19 20 10 10 20 10 20 16 10 17 20 25 4 10 19 2 27 25 17 19 25 25 2 3 27 12 17 17 17 16 25 18 4 2 4 27 27 3 19 4 27 12 12 20 17 25 17 20 20 25 17 19 4 16 2 12 19 17 27 16 25 20 3 20 3 3 17 10 12 27 12 25 25 2 16 16 27 25 27 17 10 17 3 12 2 16 3 3 3 27 10 2 10 27 2 4 3 2 3 20 19 10 4 2 27 10 4 10 2 16 2 19 12 20 12 10 17 16 2 16 19 4 25 12 25 2 10 19 
